SPARKNaCl/why3-z3/sparknacl.adb_224_22_range_check_1.smt2
;; produced by z3_gnatprove.drv ;;
(set-info :smt-lib-version 2.5)
(set-info :source |VC generated by SPARK 2014|)
(set-info :category industrial)
(set-info :status unknown)
;;; generated by SMT-LIB2 driver
;;; SMT-LIB2 driver: bit-vectors, common part
;;; SMT-LIB2: integer arithmetic
(define-fun __cdiv ((x Int) (y Int)) Int (ite (>= x 0) (div x y) (- (div (- x) y))))
(define-fun __cmod ((x Int) (y Int)) Int (ite (>= x 0) (mod x y) (- (mod (- x) y))))
(declare-datatypes ()
  ((int__ref (int__refqtmk (int__content Int)))))

;; "mod"
(define-fun mod1 ((x Int) (y Int)) Int
  (ite (<= 0 y) (mod x y) (- (mod (- x) y))))

;; "in_range"
(define-fun in_range ((x Int)) Bool
  (and (<= (- 2147483648) x) (<= x 2147483647)))

(declare-sort gf16_normal_limb 0)

;; "to_rep"
(declare-fun to_rep (gf16_normal_limb) (_ BitVec 16))

;; "of_rep"
(declare-fun of_rep ((_ BitVec 16)) gf16_normal_limb)

;; "inversion_axiom"
(assert
  (forall ((x gf16_normal_limb))
    (! (= (of_rep (to_rep x)) x) :pattern ((to_rep x)) )))

;; "range_axiom"
(assert true)

;; "coerce_axiom"
(assert
  (forall ((x (_ BitVec 16)))
    (! (= (to_rep (of_rep x)) x) :pattern ((to_rep (of_rep x))) )))

(declare-sort gf32_any_limb 0)

;; "gf32_any_limb'int"
(declare-fun gf32_any_limbqtint (gf32_any_limb) Int)

;; "gf32_any_limb'axiom"
(assert
  (forall ((i gf32_any_limb))
    (and
      (<= (- 65536) (gf32_any_limbqtint i))
      (<= (gf32_any_limbqtint i) 132051011))))

;; "in_range"
(define-fun in_range1 ((x Int)) Bool
  (and (<= (- 65536) x) (<= x 132051011)))

;; "to_rep"
(define-fun to_rep1 ((x gf32_any_limb)) Int
  (gf32_any_limbqtint x))

;; "of_rep"
(declare-fun of_rep1 (Int) gf32_any_limb)

;; "inversion_axiom"
(assert
  (forall ((x gf32_any_limb))
    (! (= (of_rep1 (to_rep1 x)) x) :pattern ((to_rep1 x)) )))

;; "range_axiom"
(assert
  (forall ((x gf32_any_limb))
    (! (in_range1 (to_rep1 x)) :pattern ((to_rep1 x)) )))

;; "coerce_axiom"
(assert
  (forall ((x Int))
    (! (=> (in_range1 x) (= (to_rep1 (of_rep1 x)) x)) :pattern ((to_rep1
                                                                  (of_rep1 x))) )))

(declare-sort gf64_natural_limb 0)

;; "gf64_natural_limb'int"
(declare-fun gf64_natural_limbqtint (gf64_natural_limb) Int)

;; "gf64_natural_limb'axiom"
(assert
  (forall ((i gf64_natural_limb))
    (and
      (<= 0 (gf64_natural_limbqtint i))
      (<= (gf64_natural_limbqtint i) 2452351484475))))

;; "in_range"
(define-fun in_range2 ((x Int)) Bool
  (and (<= 0 x) (<= x 2452351484475)))

;; "to_rep"
(define-fun to_rep2 ((x gf64_natural_limb)) Int
  (gf64_natural_limbqtint x))

;; "of_rep"
(declare-fun of_rep2 (Int) gf64_natural_limb)

;; "inversion_axiom"
(assert
  (forall ((x gf64_natural_limb))
    (! (= (of_rep2 (to_rep2 x)) x) :pattern ((to_rep2 x)) )))

;; "range_axiom"
(assert
  (forall ((x gf64_natural_limb))
    (! (in_range2 (to_rep2 x)) :pattern ((to_rep2 x)) )))

;; "coerce_axiom"
(assert
  (forall ((x Int))
    (! (=> (in_range2 x) (= (to_rep2 (of_rep2 x)) x)) :pattern ((to_rep2
                                                                  (of_rep2 x))) )))

(declare-sort map1 0)

;; "has_bounds"
(declare-fun has_bounds (map1
  Int
  Int) Bool)

;; "get"
(declare-fun get (map1
  Int) gf64_natural_limb)

(declare-const d map1)

(declare-datatypes ()
  ((gf32_any_limb__init_wrapper
   (gf32_any_limb__init_wrapperqtmk
   (rec__value gf32_any_limb)(us_attr__init Bool)))))

(declare-sort map2 0)

(declare-datatypes ()
  ((map__ref (map__refqtmk (map__content map2)))))

;; "has_bounds"
(declare-fun has_bounds1 (map2
  Int
  Int) Bool)

;; "get"
(declare-fun get1 (map2
  Int) gf32_any_limb__init_wrapper)

;; "set"
(declare-fun set (map2
  Int
  gf32_any_limb__init_wrapper) map2)

;; "set_eq"
(assert
  (forall ((a map2) (i Int) (v gf32_any_limb__init_wrapper))
    (! (= (get1 (set a i v) i) v) :pattern ((set a i v)) )))

;; "set_neq"
(assert
  (forall ((a map2) (i Int) (v gf32_any_limb__init_wrapper))
    (! (forall ((j Int))
         (! (=> (not (= i j)) (= (get1 (set a i v) j) (get1 a j))) :pattern (
         (get1
           a
           j)) :pattern ((get1 (set a i v) j)) )) :pattern ((set a i v)) )))

;; "set_has_bounds"
(assert
  (forall ((a map2) (i Int) (f Int) (l Int) (v gf32_any_limb__init_wrapper))
    (! (=>
         (and (<= f i) (<= i l))
         (=> (has_bounds1 a f l) (has_bounds1 (set a i v) f l))) :pattern (
    (has_bounds1
      (set a i v)
      f
      l)) )))

;; "in_range"
(define-fun in_range3 ((x Int)) Bool
  (and (<= (- 2147483648) x) (<= x 2147483647)))

;; "in_range"
(define-fun in_range4 ((x Int)) Bool
  (and (<= 0 x) (<= x 65535)))

;; "in_range"
(define-fun in_range5 ((x Int)) Bool
  (and (<= 0 x) (<= x 65535)))

;; "dynamic_invariant"
(define-fun dynamic_invariant ((temp___expr_1273 map1) (temp___is_init_1269 Bool) (temp___skip_constant_1270 Bool) (temp___do_toplevel_1271 Bool) (temp___do_typ_inv_1272 Bool)) Bool
  (and
    (=>
      (= temp___is_init_1269 true)
      (=>
        (= temp___do_toplevel_1271 true)
        (and
          (and
            (and
              (and
                (and
                  (and
                    (and
                      (and
                        (and
                          (and
                            (and
                              (and
                                (and
                                  (and
                                    (and
                                      (and
                                        (<= 0 (to_rep2
                                                (get temp___expr_1273 0)))
                                        (<= (to_rep2
                                              (get temp___expr_1273 0)) 39912183))
                                      (in_range5
                                        (to_rep2 (get temp___expr_1273 1))))
                                    (in_range5
                                      (to_rep2 (get temp___expr_1273 2))))
                                  (in_range5
                                    (to_rep2 (get temp___expr_1273 3))))
                                (in_range5
                                  (to_rep2 (get temp___expr_1273 4))))
                              (in_range5 (to_rep2 (get temp___expr_1273 5))))
                            (in_range5 (to_rep2 (get temp___expr_1273 6))))
                          (in_range5 (to_rep2 (get temp___expr_1273 7))))
                        (in_range5 (to_rep2 (get temp___expr_1273 8))))
                      (in_range5 (to_rep2 (get temp___expr_1273 9))))
                    (in_range5 (to_rep2 (get temp___expr_1273 10))))
                  (in_range5 (to_rep2 (get temp___expr_1273 11))))
                (in_range5 (to_rep2 (get temp___expr_1273 12))))
              (in_range5 (to_rep2 (get temp___expr_1273 13))))
            (in_range5 (to_rep2 (get temp___expr_1273 14))))
          (in_range5 (to_rep2 (get temp___expr_1273 15))))))
    (has_bounds temp___expr_1273 0 15)))

(declare-const r map2)

(declare-const c2 Int)

(declare-const t Int)

;; "t'unused"
(define-fun tqtunused () int__ref
  (int__refqtmk t))

;; "c2'unused"
(define-fun c2qtunused () int__ref
  (int__refqtmk c2))

;; "r'unused"
(define-fun rqtunused () map__ref
  (map__refqtmk r))

;; "Assume"
(assert (dynamic_invariant d true false true true))

;; "Assume"
(assert (has_bounds1 r 0 15))

;; "Assume"
(assert true)

;; "Assume"
(assert (in_range4 c2))

;; "Assume"
(assert true)

;; "Assume"
(assert (in_range1 t))

;; "o"
(define-fun o () gf64_natural_limb
  (get d 0))

;; "get'result'unused"
(define-fun getqtresultqtunused () gf64_natural_limb
  o)

(declare-const o1 Int)

;; "Ensures"
(assert (= (to_rep2 o) o1))

;; "to_rep'result'unused"
(define-fun to_repqtresultqtunused () Int
  o1)

;; "Ensures"
(assert (in_range3 o1))

;; "range_check_'result'unused"
(define-fun range_check_qtresultqtunused () Int
  o1)

;; "o"
(define-fun o2 () Int
  (mod1 o1 65536))

;; "mod_'result'unused"
(define-fun mod_qtresultqtunused () Int
  o2)

(declare-const o3 gf32_any_limb)

;; "Ensures"
(assert (= (to_rep1 o3) o2))

;; "of_rep'result'unused"
(define-fun of_repqtresultqtunused () gf32_any_limb
  o3)

;; "o"
(define-fun o4 () gf32_any_limb__init_wrapper
  (gf32_any_limb__init_wrapperqtmk o3 true))

;; "to_wrapper'result'unused"
(define-fun to_wrapperqtresultqtunused () gf32_any_limb__init_wrapper
  o4)

;; "map__content'result'unused"
(define-fun map__contentqtresultqtunused () map2
  r)

;; "o"
(define-fun o5 () map2
  (set r 0 o4))

;; "set'result'unused"
(define-fun setqtresultqtunused () map2
  o5)

(declare-const r1 map2)

;; "r'unused"
(define-fun rqtunused1 () map__ref
  (map__refqtmk r1))

;; "H"
(assert (= r1 o5))

;; "o"
(define-fun o6 () gf64_natural_limb
  (get d 0))

;; "get'result'unused"
(define-fun getqtresultqtunused1 () gf64_natural_limb
  o6)

(declare-const o7 Int)

;; "Ensures"
(assert (= (to_rep2 o6) o7))

;; "to_rep'result'unused"
(define-fun to_repqtresultqtunused1 () Int
  o7)

;; "Ensures"
(assert (in_range3 o7))

;; "range_check_'result'unused"
(define-fun range_check_qtresultqtunused1 () Int
  o7)

;; "o"
(define-fun o8 () Int
  (__cdiv o7 65536))

;; "div_'result'unused"
(define-fun div_qtresultqtunused () Int
  o8)

(declare-const c21 Int)

;; "c2'unused"
(define-fun c2qtunused1 () int__ref
  (int__refqtmk c21))

;; "H"
(assert (= c21 o8))

;; "Assert"
(assert (= (us_attr__init (get1 r1 0)) true))

;; "Assert"
(assert (in_range4 (to_rep1 (rec__value (get1 r1 0)))))

;; "Assert"
(assert (<= c21 609))

;; "int__content'result'unused"
(define-fun int__contentqtresultqtunused () Int
  c21)

;; "o"
(define-fun o9 () gf64_natural_limb
  (get d 1))

;; "get'result'unused"
(define-fun getqtresultqtunused2 () gf64_natural_limb
  o9)

(declare-const o10 Int)

;; "Ensures"
(assert (= (to_rep2 o9) o10))

;; "to_rep'result'unused"
(define-fun to_repqtresultqtunused2 () Int
  o10)

;; "Ensures"
(assert (in_range3 o10))

;; "range_check_'result'unused"
(define-fun range_check_qtresultqtunused2 () Int
  o10)

;; "o"
(define-fun o11 () Int
  (+ o10 c21))

;; "infix +'result'unused"
(define-fun infix_plqtresultqtunused () Int
  o11)

;; "Ensures"
(assert (in_range o11))

;; "range_check_'result'unused"
(define-fun range_check_qtresultqtunused3 () Int
  o11)

;; "Ensures"
(assert (in_range1 o11))

;; "range_check_'result'unused"
(define-fun range_check_qtresultqtunused4 () Int
  o11)

(declare-const t1 Int)

;; "t'unused"
(define-fun tqtunused1 () int__ref
  (int__refqtmk t1))

;; "H"
(assert (= t1 o11))

;; "int__content'result'unused"
(define-fun int__contentqtresultqtunused1 () Int
  t1)

;; "o"
(define-fun o12 () Int
  (mod1 t1 65536))

;; "mod_'result'unused"
(define-fun mod_qtresultqtunused1 () Int
  o12)

(declare-const o13 gf32_any_limb)

;; "Ensures"
(assert (= (to_rep1 o13) o12))

;; "of_rep'result'unused"
(define-fun of_repqtresultqtunused1 () gf32_any_limb
  o13)

;; "o"
(define-fun o14 () gf32_any_limb__init_wrapper
  (gf32_any_limb__init_wrapperqtmk o13 true))

;; "to_wrapper'result'unused"
(define-fun to_wrapperqtresultqtunused1 () gf32_any_limb__init_wrapper
  o14)

;; "map__content'result'unused"
(define-fun map__contentqtresultqtunused1 () map2
  r1)

;; "o"
(define-fun o15 () map2
  (set r1 1 o14))

;; "set'result'unused"
(define-fun setqtresultqtunused1 () map2
  o15)

(declare-const r2 map2)

;; "r'unused"
(define-fun rqtunused2 () map__ref
  (map__refqtmk r2))

;; "H"
(assert (= r2 o15))

;; "int__content'result'unused"
(define-fun int__contentqtresultqtunused2 () Int
  t1)

;; "o"
(define-fun o16 () Int
  (__cdiv t1 65536))

;; "div_'result'unused"
(define-fun div_qtresultqtunused1 () Int
  o16)

;; "Ensures"
(assert (in_range4 o16))

;; "range_check_'result'unused"
(define-fun range_check_qtresultqtunused5 () Int
  o16)

(declare-const c22 Int)

;; "c2'unused"
(define-fun c2qtunused2 () int__ref
  (int__refqtmk c22))

;; "H"
(assert (= c22 o16))

;; "int__content'result'unused"
(define-fun int__contentqtresultqtunused3 () Int
  c22)

;; "o"
(define-fun o17 () Bool
  (ite (<= c22 1) true false))

;; "infix <='result'unused"
(define-fun infix_lseqqtresultqtunused () Bool
  o17)

;; "map__content'result'unused"
(define-fun map__contentqtresultqtunused2 () map2
  r2)

;; "H"
(assert (<= 0 1))

;; Goal "def'vc"
;; File "sparknacl.adb", line 197, characters 0-0
(assert
  (not (<= 0 0)))

(check-sat)
